c K to QBF translator. (C)Rice University.
c From input file 5-2.lwb
p cnf 199 492
e 199 1 198 0
a 48 0
e 60 197 7 6 5 4 3 2 63 196 0
a 49 50 0
e 66 195 14 13 12 11 10 9 8 69 74 77 80 82 83 194 0
a 51 52 0
e 86 193 26 25 24 23 22 21 20 19 18 17 16 15 93 96 99 102 104 105 192 0
a 53 54 0
e 109 191 35 34 33 32 31 30 29 28 27 112 115 118 121 124 127 130 133 136 138 139 190 0
a 55 56 0
e 142 189 41 40 39 38 37 36 145 149 152 155 158 161 163 164 188 0
a 57 58 0
e 167 187 45 44 43 42 170 173 176 178 179 186 0
a 59 0
e 180 185 47 46 182 183 184 181 177 174 175 172 171 169 168 165 166 162 159 160 157 156 154 153 151 150 147 148 146 144 143 140 141 137 134 135 131 132 129 128 126 125 123 122 120 119 117 116 114 113 111 110 106 107 108 103 100 101 98 97 95 94 88 92 89 90 91 87 84 85 81 78 79 76 75 71 73 72 70 68 67 64 65 62 61 0
199  0 
199 -198 -1  0 
198 -199  0 
1 -199  0 
-198 60 197  0 
-60 198  0 
-197 198  0 
-60 -48 -1  0 
48 60  0 
1 60  0 
197 -63 -196  0 
63 -197  0 
196 -197  0 
-63 -48 62  0 
48 63  0 
-62 63  0 
62 -5 -2 -61  0 
5 -62  0 
2 -62  0 
61 -62  0 
-61 3 4 7 6  0 
-3 61  0 
-4 61  0 
-7 61  0 
-6 61  0 
-196 66 195  0 
-66 196  0 
-195 196  0 
66 -64 -65  0 
64 -66  0 
65 -66  0 
-64 -3 49 -50  0 
3 64  0 
-49 64  0 
50 64  0 
-65 -2 -49 -50  0 
2 65  0 
49 65  0 
50 65  0 
195 -69 -74 -77 -80 -82 -83 -194  0 
69 -195  0 
74 -195  0 
77 -195  0 
80 -195  0 
82 -195  0 
83 -195  0 
194 -195  0 
-69 68 14  0 
-68 69  0 
-14 69  0 
-68 -6 67  0 
6 68  0 
-67 68  0 
67 3 2  0 
-3 -67  0 
-2 -67  0 
-74 71 73  0 
-71 74  0 
-73 74  0 
-71 -5 70  0 
5 71  0 
-70 71  0 
70 3 2  0 
-3 -70  0 
-2 -70  0 
73 -12 -72  0 
12 -73  0 
72 -73  0 
-72 8 10  0 
-8 72  0 
-10 72  0 
-77 76 8  0 
-76 77  0 
-8 77  0 
-76 -4 75  0 
4 76  0 
-75 76  0 
75 3 2  0 
-3 -75  0 
-2 -75  0 
-80 78 79  0 
-78 80  0 
-79 80  0 
-78 49 -50  0 
-49 78  0 
50 78  0 
79 -11 -13  0 
11 -79  0 
13 -79  0 
-82 81 9  0 
-81 82  0 
-9 82  0 
-81 -49 -50  0 
49 81  0 
50 81  0 
-83 -13 -14  0 
13 83  0 
14 83  0 
-194 86 193  0 
-86 194  0 
-193 194  0 
86 -84 -85  0 
84 -86  0 
85 -86  0 
-84 -9 51 -52  0 
9 84  0 
-51 84  0 
52 84  0 
-85 -8 -51 -52  0 
8 85  0 
51 85  0 
52 85  0 
193 -93 -96 -99 -102 -104 -105 -192  0 
93 -193  0 
96 -193  0 
99 -193  0 
102 -193  0 
104 -193  0 
105 -193  0 
192 -193  0 
-93 88 92  0 
-88 93  0 
-92 93  0 
-88 -12 87  0 
12 88  0 
-87 88  0 
87 9 8  0 
-9 -87  0 
-8 -87  0 
92 -21 -89 -90 -91  0 
21 -92  0 
89 -92  0 
90 -92  0 
91 -92  0 
-89 17 19 23 25 24  0 
-17 89  0 
-19 89  0 
-23 89  0 
-25 89  0 
-24 89  0 
-90 16 18 26 24  0 
-16 90  0 
-18 90  0 
-26 90  0 
-24 90  0 
-91 16 20  0 
-16 91  0 
-20 91  0 
-96 95 25 24  0 
-95 96  0 
-25 96  0 
-24 96  0 
-95 -11 94  0 
11 95  0 
-94 95  0 
94 9 8  0 
-9 -94  0 
-8 -94  0 
-99 98 24  0 
-98 99  0 
-24 99  0 
-98 -10 97  0 
10 98  0 
-97 98  0 
97 9 8  0 
-9 -97  0 
-8 -97  0 
-102 100 101  0 
-100 102  0 
-101 102  0 
-100 51 -52  0 
-51 100  0 
52 100  0 
101 -22 -15 -25  0 
22 -101  0 
15 -101  0 
25 -101  0 
-104 103 25  0 
-103 104  0 
-25 104  0 
-103 -51 -52  0 
51 103  0 
52 103  0 
-105 -25 -26  0 
25 105  0 
26 105  0 
-192 109 191  0 
-109 192  0 
-191 192  0 
109 -106 -107 -108  0 
106 -109  0 
107 -109  0 
108 -109  0 
-106 -17 -53 54  0 
17 106  0 
53 106  0 
-54 106  0 
-107 -16 53 -54  0 
16 107  0 
-53 107  0 
54 107  0 
-108 -15 -53 -54  0 
15 108  0 
53 108  0 
54 108  0 
191 -112 -115 -118 -121 -124 -127 -130 -133 -136 -138 -139 -190  0 
112 -191  0 
115 -191  0 
118 -191  0 
121 -191  0 
124 -191  0 
127 -191  0 
130 -191  0 
133 -191  0 
136 -191  0 
138 -191  0 
139 -191  0 
190 -191  0 
-112 111 35  0 
-111 112  0 
-35 112  0 
-111 -24 110  0 
24 111  0 
-110 111  0 
110 17 16 15  0 
-17 -110  0 
-16 -110  0 
-15 -110  0 
-115 114 34 33  0 
-114 115  0 
-34 115  0 
-33 115  0 
-114 -23 113  0 
23 114  0 
-113 114  0 
113 17 16 15  0 
-17 -113  0 
-16 -113  0 
-15 -113  0 
-118 117 28 35  0 
-117 118  0 
-28 118  0 
-35 118  0 
-117 -22 116  0 
22 117  0 
-116 117  0 
116 17 16 15  0 
-17 -116  0 
-16 -116  0 
-15 -116  0 
-121 120 27 29  0 
-120 121  0 
-27 121  0 
-29 121  0 
-120 -21 119  0 
21 120  0 
-119 120  0 
119 17 16 15  0 
-17 -119  0 
-16 -119  0 
-15 -119  0 
-124 123 30  0 
-123 124  0 
-30 124  0 
-123 -20 122  0 
20 123  0 
-122 123  0 
122 17 16 15  0 
-17 -122  0 
-16 -122  0 
-15 -122  0 
-127 126 28  0 
-126 127  0 
-28 127  0 
-126 -19 125  0 
19 126  0 
-125 126  0 
125 17 16 15  0 
-17 -125  0 
-16 -125  0 
-15 -125  0 
-130 129 27  0 
-129 130  0 
-27 130  0 
-129 -18 128  0 
18 129  0 
-128 129  0 
128 17 16 15  0 
-17 -128  0 
-16 -128  0 
-15 -128  0 
-133 131 132  0 
-131 133  0 
-132 133  0 
-131 -53 54  0 
53 131  0 
-54 131  0 
132 -32 -35 -27  0 
32 -132  0 
35 -132  0 
27 -132  0 
-136 134 135  0 
-134 136  0 
-135 136  0 
-134 53 -54  0 
-53 134  0 
54 134  0 
135 -31 -34  0 
31 -135  0 
34 -135  0 
-138 137 33  0 
-137 138  0 
-33 138  0 
-137 -53 -54  0 
53 137  0 
54 137  0 
-139 -34 -35  0 
34 139  0 
35 139  0 
-190 142 189  0 
-142 190  0 
-189 190  0 
142 -140 -141  0 
140 -142  0 
141 -142  0 
-140 -28 55 -56  0 
28 140  0 
-55 140  0 
56 140  0 
-141 -27 -55 -56  0 
27 141  0 
55 141  0 
56 141  0 
189 -145 -149 -152 -155 -158 -161 -163 -164 -188  0 
145 -189  0 
149 -189  0 
152 -189  0 
155 -189  0 
158 -189  0 
161 -189  0 
163 -189  0 
164 -189  0 
188 -189  0 
-145 144 41  0 
-144 145  0 
-41 145  0 
-144 -33 143  0 
33 144  0 
-143 144  0 
143 28 27  0 
-28 -143  0 
-27 -143  0 
-149 147 148 38  0 
-147 149  0 
-148 149  0 
-38 149  0 
-147 -32 146  0 
32 147  0 
-146 147  0 
146 28 27  0 
-28 -146  0 
-27 -146  0 
148 -41 -36  0 
41 -148  0 
36 -148  0 
-152 151 40 39  0 
-151 152  0 
-40 152  0 
-39 152  0 
-151 -31 150  0 
31 151  0 
-150 151  0 
150 28 27  0 
-28 -150  0 
-27 -150  0 
-155 154 37 41  0 
-154 155  0 
-37 155  0 
-41 155  0 
-154 -30 153  0 
30 154  0 
-153 154  0 
153 28 27  0 
-28 -153  0 
-27 -153  0 
-158 157 39  0 
-157 158  0 
-39 158  0 
-157 -29 156  0 
29 157  0 
-156 157  0 
156 28 27  0 
-28 -156  0 
-27 -156  0 
-161 159 160  0 
-159 161  0 
-160 161  0 
-159 55 -56  0 
-55 159  0 
56 159  0 
160 -41 -36  0 
41 -160  0 
36 -160  0 
-163 162 40  0 
-162 163  0 
-40 163  0 
-162 -55 -56  0 
55 162  0 
56 162  0 
-164 -40 -41  0 
40 164  0 
41 164  0 
-188 167 187  0 
-167 188  0 
-187 188  0 
167 -165 -166  0 
165 -167  0 
166 -167  0 
-165 -37 57 -58  0 
37 165  0 
-57 165  0 
58 165  0 
-166 -36 -57 -58  0 
36 166  0 
57 166  0 
58 166  0 
187 -170 -173 -176 -178 -179 -186  0 
170 -187  0 
173 -187  0 
176 -187  0 
178 -187  0 
179 -187  0 
186 -187  0 
-170 169 45  0 
-169 170  0 
-45 170  0 
-169 -39 168  0 
39 169  0 
-168 169  0 
168 37 36  0 
-37 -168  0 
-36 -168  0 
-173 172 44 43  0 
-172 173  0 
-44 173  0 
-43 173  0 
-172 -38 171  0 
38 172  0 
-171 172  0 
171 37 36  0 
-37 -171  0 
-36 -171  0 
-176 174 175  0 
-174 176  0 
-175 176  0 
-174 57 -58  0 
-57 174  0 
58 174  0 
175 -45 -42  0 
45 -175  0 
42 -175  0 
-178 177 44  0 
-177 178  0 
-44 178  0 
-177 -57 -58  0 
57 177  0 
58 177  0 
-179 -44 -45  0 
44 179  0 
45 179  0 
-186 180 185  0 
-180 186  0 
-185 186  0 
-180 -59 -42  0 
59 180  0 
42 180  0 
185 -182 -183 -184  0 
182 -185  0 
183 -185  0 
184 -185  0 
-182 181 47  0 
-181 182  0 
-47 182  0 
-181 -43 -42  0 
43 181  0 
42 181  0 
-183 -59 46  0 
59 183  0 
-46 183  0 
-184 -46 -47  0 
46 184  0 
47 184  0 
